NAME : KROA99A.24980.tour
COMMENT : Cost = 0_24980
COMMENT : Found by LKH [Keld Helsgaun] Sun Sep 17 16:52:41 2017
TYPE : TOUR
DIMENSION : 99
TOUR_SECTION
1
67
69
81
25
61
51
87
9
7
57
27
86
20
12
55
83
34
46
3
14
71
41
99
48
30
39
95
78
52
5
37
33
76
13
94
82
2
64
40
54
44
50
73
68
85
29
43
35
62
60
77
58
28
92
47
32
45
23
97
90
11
17
15
59
74
72
21
36
84
10
89
49
6
63
75
96
19
53
16
88
79
18
24
38
98
93
22
70
26
65
66
4
56
80
31
42
8
91
-1
EOF
